(set-info :smt-lib-version 2.6)
(set-logic AUFBVFPDTNIRA)
(set-info :source |
Generated by: AdaCore
Generated on: 2020-03-06
Generator: SPARK
Application: Program verification for Ada
Target solver: CVC4
|)
(set-info :license "https://creativecommons.org/licenses/by/4.0/")
(set-info :category "industrial")
(set-info :status unknown)
;;; generated by SMT-LIB2 driver
;;; SMT-LIB2 driver: bit-vectors, common part
;;; SMT-LIB2: integer arithmetic
(declare-sort string 0)

(declare-datatypes ((tuple0 0))
(((Tuple0))))
(declare-sort us_private 0)

(declare-fun private__bool_eq (us_private us_private) Bool)

(declare-const us_null_ext__ us_private)

(declare-sort us_type_of_heap 0)

(declare-datatypes ((us_type_of_heap__ref 0))
(((us_type_of_heap__refqtmk (us_type_of_heap__content us_type_of_heap)))))
(declare-sort us_image 0)

(declare-datatypes ((int__ref 0))
(((int__refqtmk (int__content Int)))))
(declare-datatypes ((bool__ref 0))
(((bool__refqtmk (bool__content Bool)))))
(declare-datatypes ((us_fixed__ref 0))
(((us_fixed__refqtmk (us_fixed__content Int)))))
(declare-datatypes ((real__ref 0))
(((real__refqtmk (real__content Real)))))
(declare-datatypes ((us_private__ref 0))
(((us_private__refqtmk (us_private__content us_private)))))
(define-fun int__ref___projection ((a int__ref)) Int (int__content a))

(define-fun us_fixed__ref___projection ((a us_fixed__ref)) Int (us_fixed__content
                                                               a))

(define-fun bool__ref___projection ((a bool__ref)) Bool (bool__content a))

(define-fun real__ref___projection ((a real__ref)) Real (real__content a))

(define-fun us_private__ref___projection ((a us_private__ref)) us_private 
  (us_private__content a))

(define-fun in_range ((x Int)) Bool (or (= x 0) (= x 1)))

(declare-fun attr__ATTRIBUTE_IMAGE (Bool) us_image)

(declare-fun attr__ATTRIBUTE_VALUE__pre_check (us_image) Bool)

(declare-fun attr__ATTRIBUTE_VALUE (us_image) Bool)

(declare-sort us_main_type 0)

(declare-datatypes ((us_rep 0))
(((us_repqtmk
  (rec__local_borrow_array__list_acc__is_null_pointer Bool)(rec__local_borrow_array__list_acc__pointer_address Int)(rec__local_borrow_array__list_acc__pointer_value_abstr us_main_type)))))
(define-fun us_rep_rec__local_borrow_array__list_acc__is_null_pointer__projection ((a us_rep)) Bool 
  (rec__local_borrow_array__list_acc__is_null_pointer a))

(define-fun us_rep_rec__local_borrow_array__list_acc__pointer_address__projection ((a us_rep)) Int 
  (rec__local_borrow_array__list_acc__pointer_address a))

(define-fun us_rep_rec__local_borrow_array__list_acc__pointer_value_abstr__projection ((a us_rep)) us_main_type 
  (rec__local_borrow_array__list_acc__pointer_value_abstr a))

(declare-datatypes ((us_rep__ref 0))
(((us_rep__refqtmk (us_rep__content us_rep)))))
(define-fun us_rep__ref___rep__content__2__projection ((a us_rep__ref)) us_rep 
  (us_rep__content a))

(define-fun bool_eq ((a us_rep)
  (b us_rep)) Bool (ite (and
                        (= (rec__local_borrow_array__list_acc__is_null_pointer
                           a) (rec__local_borrow_array__list_acc__is_null_pointer
                              b))
                        (=>
                        (not
                        (= (rec__local_borrow_array__list_acc__is_null_pointer
                           a) true))
                        (and
                        (= (rec__local_borrow_array__list_acc__pointer_address
                           a) (rec__local_borrow_array__list_acc__pointer_address
                              b))
                        (= (rec__local_borrow_array__list_acc__pointer_value_abstr
                           a) (rec__local_borrow_array__list_acc__pointer_value_abstr
                              b)))))
                   true false))

(declare-const dummy us_rep)

(declare-datatypes ((t3b__ref 0))
(((t3b__refqtmk (t3b__content us_rep)))))
(define-fun t3b__ref_t3b__content__projection ((a t3b__ref)) us_rep (t3b__content
                                                                    a))

(declare-const x us_rep)

(declare-const attr__ATTRIBUTE_ADDRESS Int)

(declare-sort integer 0)

(declare-fun integerqtint (integer) Int)

;; integer'axiom
  (assert
  (forall ((i integer))
  (and (<= (- 2147483648) (integerqtint i)) (<= (integerqtint i) 2147483647))))

(define-fun in_range1 ((x1 Int)) Bool (and (<= (- 2147483648) x1)
                                      (<= x1 2147483647)))

(declare-fun attr__ATTRIBUTE_IMAGE1 (Int) us_image)

(declare-fun attr__ATTRIBUTE_VALUE__pre_check1 (us_image) Bool)

(declare-fun attr__ATTRIBUTE_VALUE1 (us_image) Int)

(declare-fun user_eq (integer integer) Bool)

(declare-const dummy1 integer)

(declare-datatypes ((integer__ref 0))
(((integer__refqtmk (integer__content integer)))))
(define-fun integer__ref_integer__content__projection ((a integer__ref)) integer 
  (integer__content a))

(declare-sort positive 0)

(declare-fun positiveqtint (positive) Int)

;; positive'axiom
  (assert
  (forall ((i positive))
  (and (<= 1 (positiveqtint i)) (<= (positiveqtint i) 2147483647))))

(define-fun in_range2 ((x1 Int)) Bool (and (<= 1 x1) (<= x1 2147483647)))

(declare-fun attr__ATTRIBUTE_IMAGE2 (Int) us_image)

(declare-fun attr__ATTRIBUTE_VALUE__pre_check2 (us_image) Bool)

(declare-fun attr__ATTRIBUTE_VALUE2 (us_image) Int)

(declare-fun user_eq1 (positive positive) Bool)

(declare-const dummy2 positive)

(declare-datatypes ((positive__ref 0))
(((positive__refqtmk (positive__content positive)))))
(define-fun positive__ref_positive__content__projection ((a positive__ref)) positive 
  (positive__content a))

(define-fun to_rep ((x1 integer)) Int (integerqtint x1))

(declare-fun of_rep (Int) integer)

;; inversion_axiom
  (assert
  (forall ((x1 integer))
  (! (= (of_rep (to_rep x1)) x1) :pattern ((to_rep x1)) )))

;; range_axiom
  (assert
  (forall ((x1 integer)) (! (in_range1 (to_rep x1)) :pattern ((to_rep x1)) )))

;; coerce_axiom
  (assert
  (forall ((x1 Int))
  (! (=> (in_range1 x1) (= (to_rep (of_rep x1)) x1)) :pattern ((to_rep
                                                               (of_rep x1))) )))

(declare-const dummy3 us_rep)

(declare-datatypes ((list_acc__ref 0))
(((list_acc__refqtmk (list_acc__content us_rep)))))
(define-fun list_acc__ref_list_acc__content__projection ((a list_acc__ref)) us_rep 
  (list_acc__content a))

(declare-datatypes ((map__ref 0))
(((map__refqtmk (map__content (Array Int us_rep))))))
(declare-fun slide ((Array Int us_rep) Int Int) (Array Int us_rep))

;; slide_eq
  (assert
  (forall ((a (Array Int us_rep)))
  (forall ((first Int))
  (! (= (slide a first first) a) :pattern ((slide a first first)) ))))

;; slide_def
  (assert
  (forall ((a (Array Int us_rep)))
  (forall ((old_first Int))
  (forall ((new_first Int))
  (forall ((i Int))
  (! (= (select (slide a old_first new_first) i) (select a (- i (- new_first old_first)))) :pattern ((select 
  (slide a old_first new_first) i)) ))))))

(define-fun bool_eq1 ((a (Array Int us_rep)) (a__first Int) (a__last Int)
  (b (Array Int us_rep)) (b__first Int)
  (b__last Int)) Bool (ite (and
                           (ite (<= a__first a__last)
                           (and (<= b__first b__last)
                           (= (- a__last a__first) (- b__last b__first)))
                           (< b__last b__first))
                           (forall ((temp___idx_154 Int))
                           (=>
                           (and (<= a__first temp___idx_154)
                           (<= temp___idx_154 a__last))
                           (= (bool_eq (select a temp___idx_154)
                              (select b (+ (- b__first a__first) temp___idx_154))) true))))
                      true false))

;; bool_eq_rev
  (assert
  (forall ((a (Array Int us_rep)) (b (Array Int us_rep)))
  (forall ((a__first Int) (a__last Int) (b__first Int) (b__last Int))
  (=> (= (bool_eq1 b b__first b__last a a__first a__last) true)
  (and
  (ite (<= a__first a__last)
  (and (<= b__first b__last) (= (- a__last a__first) (- b__last b__first)))
  (< b__last b__first))
  (forall ((temp___idx_154 Int))
  (=> (and (<= a__first temp___idx_154) (<= temp___idx_154 a__last))
  (= (bool_eq (select a temp___idx_154)
     (select b (+ (- b__first a__first) temp___idx_154))) true))))))))

(declare-sort t 0)

(declare-fun first (t) integer)

(declare-fun last (t) integer)

(declare-fun mk (Int Int) t)

;; mk_def
  (assert
  (forall ((f Int) (l Int))
  (! (=> (in_range1 f)
     (=> (in_range1 l)
     (and (= (to_rep (first (mk f l))) f) (= (to_rep (last (mk f l))) l)))) :pattern (
  (mk f l)) )))

(define-fun dynamic_property ((range_first Int) (range_last Int) (low Int)
  (high Int)) Bool (and (in_range1 low)
                   (and (in_range1 high)
                   (=> (<= low high) (and (in_range2 low) (in_range2 high))))))

(declare-datatypes ((us_t 0))
(((us_tqtmk (elts (Array Int us_rep))(rt t)))))
(define-fun to_array ((a us_t)) (Array Int us_rep) (elts a))

(define-fun of_array ((a (Array Int us_rep)) (f Int)
  (l Int)) us_t (us_tqtmk a (mk f l)))

(define-fun first1 ((a us_t)) Int (to_rep (first (rt a))))

(define-fun last1 ((a us_t)) Int (to_rep (last (rt a))))

(define-fun length ((a us_t)) Int (ite (<= (first1 a) (last1 a))
                                  (+ (- (last1 a) (first1 a)) 1) 0))

(declare-const value__size Int)

(declare-const object__size Int)

(declare-const component__size Int)

(declare-const alignment Int)

;; value__size_axiom
  (assert (<= 0 value__size))

;; object__size_axiom
  (assert (<= 0 object__size))

;; component__size_axiom
  (assert (<= 0 component__size))

;; alignment_axiom
  (assert (<= 0 alignment))

(define-fun bool_eq2 ((x1 us_t)
  (y us_t)) Bool (bool_eq1 (elts x1) (to_rep (first (rt x1)))
                 (to_rep (last (rt x1))) (elts y) (to_rep (first (rt y)))
                 (to_rep (last (rt y)))))

(declare-fun user_eq2 (us_t us_t) Bool)

(declare-const dummy4 us_t)

(declare-datatypes ((list_acc_arr__ref 0))
(((list_acc_arr__refqtmk (list_acc_arr__content us_t)))))
(define-fun list_acc_arr__ref_list_acc_arr__content__projection ((a list_acc_arr__ref)) us_t 
  (list_acc_arr__content a))

(declare-datatypes ((us_rep1 0))
(((us_repqtmk1
  (rec__local_borrow_array__list_acc_arr_acc__is_null_pointer Bool)(rec__local_borrow_array__list_acc_arr_acc__pointer_address Int)(rec__local_borrow_array__list_acc_arr_acc__pointer_value us_t)))))
(define-fun us_rep_rec__local_borrow_array__list_acc_arr_acc__is_null_pointer__projection ((a us_rep1)) Bool 
  (rec__local_borrow_array__list_acc_arr_acc__is_null_pointer a))

(define-fun us_rep_rec__local_borrow_array__list_acc_arr_acc__pointer_address__projection ((a us_rep1)) Int 
  (rec__local_borrow_array__list_acc_arr_acc__pointer_address a))

(define-fun us_rep_rec__local_borrow_array__list_acc_arr_acc__pointer_value__projection ((a us_rep1)) us_t 
  (rec__local_borrow_array__list_acc_arr_acc__pointer_value a))

(declare-datatypes ((us_rep__ref1 0))
(((us_rep__refqtmk1 (us_rep__content1 us_rep1)))))
(define-fun us_rep__ref___rep__content__3__projection ((a us_rep__ref1)) us_rep1 
  (us_rep__content1 a))

(define-fun bool_eq3 ((a us_rep1)
  (b us_rep1)) Bool (ite (and
                         (= (rec__local_borrow_array__list_acc_arr_acc__is_null_pointer
                            a) (rec__local_borrow_array__list_acc_arr_acc__is_null_pointer
                               b))
                         (=>
                         (not
                         (= (rec__local_borrow_array__list_acc_arr_acc__is_null_pointer
                            a) true))
                         (and
                         (= (rec__local_borrow_array__list_acc_arr_acc__pointer_address
                            a) (rec__local_borrow_array__list_acc_arr_acc__pointer_address
                               b))
                         (= (rec__local_borrow_array__list_acc_arr_acc__pointer_value
                            a) (rec__local_borrow_array__list_acc_arr_acc__pointer_value
                               b)))))
                    true false))

(define-fun rec__local_borrow_array__list_acc_arr_acc__pointer_value__pred ((a us_rep1)) Bool 
  (not
  (= (rec__local_borrow_array__list_acc_arr_acc__is_null_pointer a) true)))

(declare-const us_null_pointer us_rep1)

;; __null_pointer__def_axiom
  (assert
  (= (rec__local_borrow_array__list_acc_arr_acc__is_null_pointer
     us_null_pointer) true))

(declare-const dummy5 us_rep1)

(declare-datatypes ((t4b__ref 0))
(((t4b__refqtmk (t4b__content us_rep1)))))
(define-fun t4b__ref_t4b__content__projection ((a t4b__ref)) us_rep1 
  (t4b__content a))

(declare-fun get_nexts (us_rep) us_rep1)

(declare-fun get_nexts__function_guard (us_rep1 us_rep) Bool)

(declare-sort us_pledge_ty 0)

(declare-datatypes ((us_pledge_ty__ref 0))
(((us_pledge_ty__refqtmk (us_pledge_ty__content us_pledge_ty)))))
(declare-fun us_pledge_get (us_pledge_ty us_rep us_rep1) Bool)

(declare-fun local_borrow_array__get_nexts__pledge (us_rep) us_pledge_ty)

(declare-const dummy6 us_rep1)

(declare-datatypes ((list_acc_arr_acc__ref 0))
(((list_acc_arr_acc__refqtmk (list_acc_arr_acc__content us_rep1)))))
(define-fun list_acc_arr_acc__ref_list_acc_arr_acc__content__projection ((a list_acc_arr_acc__ref)) us_rep1 
  (list_acc_arr_acc__content a))

(declare-datatypes ((us_split_fields 0))
(((us_split_fieldsqtmk
  (rec__local_borrow_array__list__v integer)(rec__local_borrow_array__list__n us_rep1)))))
(define-fun us_split_fields_rec__local_borrow_array__list__v__projection ((a us_split_fields)) integer 
  (rec__local_borrow_array__list__v a))

(define-fun us_split_fields_rec__local_borrow_array__list__n__projection ((a us_split_fields)) us_rep1 
  (rec__local_borrow_array__list__n a))

(declare-datatypes ((us_split_fields__ref 0))
(((us_split_fields__refqtmk (us_split_fields__content us_split_fields)))))
(define-fun us_split_fields__ref___split_fields__content__projection ((a us_split_fields__ref)) us_split_fields 
  (us_split_fields__content a))

(declare-datatypes ((us_rep2 0))
(((us_repqtmk2 (us_split_fields1 us_split_fields)))))
(define-fun us_rep___split_fields__projection ((a us_rep2)) us_split_fields 
  (us_split_fields1 a))

(define-fun bool_eq4 ((a us_rep2)
  (b us_rep2)) Bool (ite (and
                         (= (to_rep
                            (rec__local_borrow_array__list__v
                            (us_split_fields1 a))) (to_rep
                                                   (rec__local_borrow_array__list__v
                                                   (us_split_fields1 b))))
                         (= (bool_eq3
                            (rec__local_borrow_array__list__n
                            (us_split_fields1 a))
                            (rec__local_borrow_array__list__n
                            (us_split_fields1 b))) true))
                    true false))

(declare-const value__size1 Int)

(declare-const object__size1 Int)

(declare-const alignment1 Int)

;; value__size_axiom
  (assert (<= 0 value__size1))

;; object__size_axiom
  (assert (<= 0 object__size1))

;; alignment_axiom
  (assert (<= 0 alignment1))

(declare-const local_borrow_array__list__v__first__bit Int)

(declare-const local_borrow_array__list__v__last__bit Int)

(declare-const local_borrow_array__list__v__position Int)

;; local_borrow_array__list__v__first__bit_axiom
  (assert (<= 0 local_borrow_array__list__v__first__bit))

;; local_borrow_array__list__v__last__bit_axiom
  (assert
  (< local_borrow_array__list__v__first__bit local_borrow_array__list__v__last__bit))

;; local_borrow_array__list__v__position_axiom
  (assert (<= 0 local_borrow_array__list__v__position))

(declare-const local_borrow_array__list__n__first__bit Int)

(declare-const local_borrow_array__list__n__last__bit Int)

(declare-const local_borrow_array__list__n__position Int)

;; local_borrow_array__list__n__first__bit_axiom
  (assert (<= 0 local_borrow_array__list__n__first__bit))

;; local_borrow_array__list__n__last__bit_axiom
  (assert
  (< local_borrow_array__list__n__first__bit local_borrow_array__list__n__last__bit))

;; local_borrow_array__list__n__position_axiom
  (assert (<= 0 local_borrow_array__list__n__position))

(declare-fun user_eq3 (us_rep2 us_rep2) Bool)

(declare-const dummy7 us_rep2)

(declare-datatypes ((list__ref 0))
(((list__refqtmk (list__content us_rep2)))))
(define-fun list__ref_list__content__projection ((a list__ref)) us_rep2 
  (list__content a))

(declare-fun us_open (us_main_type) us_rep2)

(declare-fun us_close (us_rep2) us_main_type)

;; close_open
  (assert
  (forall ((x1 us_main_type))
  (! (= (us_close (us_open x1)) x1) :pattern ((us_open x1)) )))

;; open_close
  (assert
  (forall ((x1 us_rep2))
  (! (= (us_open (us_close x1)) x1) :pattern ((us_close x1)) )))

(define-fun rec__local_borrow_array__list_acc__pointer_value ((a us_rep)) us_rep2 
  (us_open (rec__local_borrow_array__list_acc__pointer_value_abstr a)))

(define-fun rec__local_borrow_array__list_acc__pointer_value__pred ((a us_rep)) Bool 
  (not (= (rec__local_borrow_array__list_acc__is_null_pointer a) true)))

(declare-const us_null_pointer1 us_rep)

;; __null_pointer__def_axiom
  (assert
  (= (rec__local_borrow_array__list_acc__is_null_pointer us_null_pointer1) true))

(declare-fun temp___dynamic_invariant_190 (us_rep Bool Bool Bool Bool) Bool)

(define-fun dynamic_invariant ((temp___expr_188 us_rep)
  (temp___is_init_184 Bool) (temp___skip_constant_185 Bool)
  (temp___do_toplevel_186 Bool)
  (temp___do_typ_inv_187 Bool)) Bool (=>
                                     (not
                                     (= (rec__local_borrow_array__list_acc__is_null_pointer
                                        temp___expr_188) true))
                                     (=>
                                     (not
                                     (= (rec__local_borrow_array__list_acc_arr_acc__is_null_pointer
                                        (rec__local_borrow_array__list__n
                                        (us_split_fields1
                                        (rec__local_borrow_array__list_acc__pointer_value
                                        temp___expr_188)))) true))
                                     (and (dynamic_property 1 2147483647
                                     (first1
                                     (rec__local_borrow_array__list_acc_arr_acc__pointer_value
                                     (rec__local_borrow_array__list__n
                                     (us_split_fields1
                                     (rec__local_borrow_array__list_acc__pointer_value
                                     temp___expr_188)))))
                                     (last1
                                     (rec__local_borrow_array__list_acc_arr_acc__pointer_value
                                     (rec__local_borrow_array__list__n
                                     (us_split_fields1
                                     (rec__local_borrow_array__list_acc__pointer_value
                                     temp___expr_188))))))
                                     (forall ((temp___189 Int))
                                     (=>
                                     (and
                                     (<= (first1
                                         (rec__local_borrow_array__list_acc_arr_acc__pointer_value
                                         (rec__local_borrow_array__list__n
                                         (us_split_fields1
                                         (rec__local_borrow_array__list_acc__pointer_value
                                         temp___expr_188))))) temp___189)
                                     (<= temp___189 (last1
                                                    (rec__local_borrow_array__list_acc_arr_acc__pointer_value
                                                    (rec__local_borrow_array__list__n
                                                    (us_split_fields1
                                                    (rec__local_borrow_array__list_acc__pointer_value
                                                    temp___expr_188)))))))
                                     (temp___dynamic_invariant_190
                                     (select (to_array
                                             (rec__local_borrow_array__list_acc_arr_acc__pointer_value
                                             (rec__local_borrow_array__list__n
                                             (us_split_fields1
                                             (rec__local_borrow_array__list_acc__pointer_value
                                             temp___expr_188))))) temp___189)
                                     true false true temp___do_typ_inv_187)))))))

;; def_axiom
  (assert
  (forall ((temp___expr_195 us_rep))
  (forall ((temp___is_init_191 Bool) (temp___skip_constant_192 Bool)
  (temp___do_toplevel_193 Bool) (temp___do_typ_inv_194 Bool))
  (! (= (temp___dynamic_invariant_190 temp___expr_195 temp___is_init_191
     temp___skip_constant_192 temp___do_toplevel_193 temp___do_typ_inv_194)
     (=>
     (not
     (= (rec__local_borrow_array__list_acc__is_null_pointer temp___expr_195) true))
     (=>
     (not
     (= (rec__local_borrow_array__list_acc_arr_acc__is_null_pointer
        (rec__local_borrow_array__list__n
        (us_split_fields1
        (rec__local_borrow_array__list_acc__pointer_value temp___expr_195)))) true))
     (and (dynamic_property 1 2147483647
     (first1
     (rec__local_borrow_array__list_acc_arr_acc__pointer_value
     (rec__local_borrow_array__list__n
     (us_split_fields1
     (rec__local_borrow_array__list_acc__pointer_value temp___expr_195)))))
     (last1
     (rec__local_borrow_array__list_acc_arr_acc__pointer_value
     (rec__local_borrow_array__list__n
     (us_split_fields1
     (rec__local_borrow_array__list_acc__pointer_value temp___expr_195))))))
     (forall ((temp___196 Int))
     (=>
     (and
     (<= (first1
         (rec__local_borrow_array__list_acc_arr_acc__pointer_value
         (rec__local_borrow_array__list__n
         (us_split_fields1
         (rec__local_borrow_array__list_acc__pointer_value temp___expr_195))))) temp___196)
     (<= temp___196 (last1
                    (rec__local_borrow_array__list_acc_arr_acc__pointer_value
                    (rec__local_borrow_array__list__n
                    (us_split_fields1
                    (rec__local_borrow_array__list_acc__pointer_value
                    temp___expr_195)))))))
     (temp___dynamic_invariant_190
     (select (to_array
             (rec__local_borrow_array__list_acc_arr_acc__pointer_value
             (rec__local_borrow_array__list__n
             (us_split_fields1
             (rec__local_borrow_array__list_acc__pointer_value
             temp___expr_195))))) temp___196)
     true false true temp___do_typ_inv_194))))))) :pattern ((temp___dynamic_invariant_190
  temp___expr_195 temp___is_init_191 temp___skip_constant_192
  temp___do_toplevel_193 temp___do_typ_inv_194)) ))))

(define-fun default_initial_assumption ((temp___expr_197 us_rep)
  (temp___skip_top_level_198 Bool)) Bool (= (rec__local_borrow_array__list_acc__is_null_pointer
                                            temp___expr_197) true))

(define-fun dynamic_invariant1 ((temp___expr_218 us_rep2)
  (temp___is_init_214 Bool) (temp___skip_constant_215 Bool)
  (temp___do_toplevel_216 Bool)
  (temp___do_typ_inv_217 Bool)) Bool (=>
                                     (not
                                     (= (rec__local_borrow_array__list_acc_arr_acc__is_null_pointer
                                        (rec__local_borrow_array__list__n
                                        (us_split_fields1 temp___expr_218))) true))
                                     (and (dynamic_property 1 2147483647
                                     (first1
                                     (rec__local_borrow_array__list_acc_arr_acc__pointer_value
                                     (rec__local_borrow_array__list__n
                                     (us_split_fields1 temp___expr_218))))
                                     (last1
                                     (rec__local_borrow_array__list_acc_arr_acc__pointer_value
                                     (rec__local_borrow_array__list__n
                                     (us_split_fields1 temp___expr_218)))))
                                     (forall ((temp___219 Int))
                                     (=>
                                     (and
                                     (<= (first1
                                         (rec__local_borrow_array__list_acc_arr_acc__pointer_value
                                         (rec__local_borrow_array__list__n
                                         (us_split_fields1 temp___expr_218)))) temp___219)
                                     (<= temp___219 (last1
                                                    (rec__local_borrow_array__list_acc_arr_acc__pointer_value
                                                    (rec__local_borrow_array__list__n
                                                    (us_split_fields1
                                                    temp___expr_218))))))
                                     (temp___dynamic_invariant_190
                                     (select (to_array
                                             (rec__local_borrow_array__list_acc_arr_acc__pointer_value
                                             (rec__local_borrow_array__list__n
                                             (us_split_fields1
                                             temp___expr_218)))) temp___219)
                                     true false true temp___do_typ_inv_217))))))

(define-fun default_initial_assumption1 ((temp___expr_220 us_rep2)
  (temp___skip_top_level_221 Bool)) Bool (= (rec__local_borrow_array__list_acc_arr_acc__is_null_pointer
                                            (rec__local_borrow_array__list__n
                                            (us_split_fields1
                                            temp___expr_220))) true))

(define-fun dynamic_invariant2 ((temp___expr_18 Int) (temp___is_init_14 Bool)
  (temp___skip_constant_15 Bool) (temp___do_toplevel_16 Bool)
  (temp___do_typ_inv_17 Bool)) Bool (=>
                                    (or (= temp___is_init_14 true)
                                    (<= (- 2147483648) 2147483647))
                                    (in_range1 temp___expr_18)))

(define-fun dynamic_invariant3 ((temp___expr_46 Int) (temp___is_init_42 Bool)
  (temp___skip_constant_43 Bool) (temp___do_toplevel_44 Bool)
  (temp___do_typ_inv_45 Bool)) Bool (=>
                                    (or (= temp___is_init_42 true)
                                    (<= 1 2147483647)) (in_range2
                                    temp___expr_46)))

(define-fun dynamic_invariant4 ((temp___expr_203 us_t)
  (temp___is_init_199 Bool) (temp___skip_constant_200 Bool)
  (temp___do_toplevel_201 Bool)
  (temp___do_typ_inv_202 Bool)) Bool (and
                                     (=>
                                     (not (= temp___skip_constant_200 true))
                                     (dynamic_property 1 2147483647
                                     (first1 temp___expr_203)
                                     (last1 temp___expr_203)))
                                     (forall ((temp___204 Int))
                                     (=>
                                     (and
                                     (<= (first1 temp___expr_203) temp___204)
                                     (<= temp___204 (last1 temp___expr_203)))
                                     (=>
                                     (not
                                     (= (rec__local_borrow_array__list_acc__is_null_pointer
                                        (select (to_array temp___expr_203) temp___204)) true))
                                     (=>
                                     (not
                                     (= (rec__local_borrow_array__list_acc_arr_acc__is_null_pointer
                                        (rec__local_borrow_array__list__n
                                        (us_split_fields1
                                        (rec__local_borrow_array__list_acc__pointer_value
                                        (select (to_array temp___expr_203) temp___204))))) true))
                                     (and (dynamic_property 1 2147483647
                                     (first1
                                     (rec__local_borrow_array__list_acc_arr_acc__pointer_value
                                     (rec__local_borrow_array__list__n
                                     (us_split_fields1
                                     (rec__local_borrow_array__list_acc__pointer_value
                                     (select (to_array temp___expr_203) temp___204))))))
                                     (last1
                                     (rec__local_borrow_array__list_acc_arr_acc__pointer_value
                                     (rec__local_borrow_array__list__n
                                     (us_split_fields1
                                     (rec__local_borrow_array__list_acc__pointer_value
                                     (select (to_array temp___expr_203) temp___204)))))))
                                     (forall ((temp___205 Int))
                                     (=>
                                     (and
                                     (<= (first1
                                         (rec__local_borrow_array__list_acc_arr_acc__pointer_value
                                         (rec__local_borrow_array__list__n
                                         (us_split_fields1
                                         (rec__local_borrow_array__list_acc__pointer_value
                                         (select (to_array temp___expr_203) temp___204)))))) temp___205)
                                     (<= temp___205 (last1
                                                    (rec__local_borrow_array__list_acc_arr_acc__pointer_value
                                                    (rec__local_borrow_array__list__n
                                                    (us_split_fields1
                                                    (rec__local_borrow_array__list_acc__pointer_value
                                                    (select (to_array
                                                            temp___expr_203) temp___204))))))))
                                     (temp___dynamic_invariant_190
                                     (select (to_array
                                             (rec__local_borrow_array__list_acc_arr_acc__pointer_value
                                             (rec__local_borrow_array__list__n
                                             (us_split_fields1
                                             (rec__local_borrow_array__list_acc__pointer_value
                                             (select (to_array
                                                     temp___expr_203) temp___204)))))) temp___205)
                                     true false true temp___do_typ_inv_202))))))))))

(define-fun dynamic_invariant5 ((temp___expr_210 us_rep1)
  (temp___is_init_206 Bool) (temp___skip_constant_207 Bool)
  (temp___do_toplevel_208 Bool)
  (temp___do_typ_inv_209 Bool)) Bool (=>
                                     (not
                                     (= (rec__local_borrow_array__list_acc_arr_acc__is_null_pointer
                                        temp___expr_210) true))
                                     (and (dynamic_property 1 2147483647
                                     (first1
                                     (rec__local_borrow_array__list_acc_arr_acc__pointer_value
                                     temp___expr_210))
                                     (last1
                                     (rec__local_borrow_array__list_acc_arr_acc__pointer_value
                                     temp___expr_210)))
                                     (forall ((temp___211 Int))
                                     (=>
                                     (and
                                     (<= (first1
                                         (rec__local_borrow_array__list_acc_arr_acc__pointer_value
                                         temp___expr_210)) temp___211)
                                     (<= temp___211 (last1
                                                    (rec__local_borrow_array__list_acc_arr_acc__pointer_value
                                                    temp___expr_210))))
                                     (temp___dynamic_invariant_190
                                     (select (to_array
                                             (rec__local_borrow_array__list_acc_arr_acc__pointer_value
                                             temp___expr_210)) temp___211)
                                     true false true temp___do_typ_inv_209))))))

(define-fun default_initial_assumption2 ((temp___expr_212 us_rep1)
  (temp___skip_top_level_213 Bool)) Bool (= (rec__local_borrow_array__list_acc_arr_acc__is_null_pointer
                                            temp___expr_212) true))

;; get_nexts__post_axiom
  (assert
  (forall ((x1 us_rep))
  (! (=>
     (and
     (=>
     (not (= (rec__local_borrow_array__list_acc__is_null_pointer x1) true))
     (dynamic_invariant1
     (rec__local_borrow_array__list_acc__pointer_value x1) true false true
     true)) (not (= (bool_eq x1 us_null_pointer1) true)))
     (let ((result (get_nexts x1)))
     (=> (get_nexts__function_guard result x1)
     (and
     (= (us_pledge_get (local_borrow_array__get_nexts__pledge x1) x1 result) true)
     (=>
     (not
     (= (rec__local_borrow_array__list_acc_arr_acc__is_null_pointer result) true))
     (dynamic_invariant4
     (rec__local_borrow_array__list_acc_arr_acc__pointer_value result) true
     false true true)))))) :pattern ((get_nexts x1)) )))

(assert
;; defqtvc
 ;; File "local_borrow_array.adb", line 12, characters 0-0
  (not
  (=>
  (=> (not (= (rec__local_borrow_array__list_acc__is_null_pointer x) true))
  (dynamic_invariant1 (rec__local_borrow_array__list_acc__pointer_value x)
  true false true true))
  (=> (not (= (bool_eq x us_null_pointer1) true))
  (rec__local_borrow_array__list_acc__pointer_value__pred x)))))
(check-sat)
(exit)
